NAME : brazil58.33640.tour
COMMENT : Cost = 0_33640
COMMENT : Found by LKH [Keld Helsgaun] Thu Nov 16 16:22:20 2017
TYPE : TOUR
DIMENSION : 67
TOUR_SECTION
1
18
59
44
60
13
61
40
62
9
63
25
64
24
65
58
66
23
5
57
12
27
43
49
47
51
52
10
35
41
2
54
55
48
3
29
33
45
56
46
34
15
37
14
28
6
19
26
17
36
21
39
11
7
31
38
42
16
22
8
4
50
53
20
32
67
30
-1
EOF
